db/inputs/26087844285002841720710179551444823528.smt2
(set-logic QF_FP)
(declare-const x0 (_ FloatingPoint 8 24))
(declare-const x1 (_ FloatingPoint 8 24))
(declare-const x2 (_ FloatingPoint 8 24))
(declare-const x3 (_ FloatingPoint 8 24))
(declare-const x4 (_ FloatingPoint 8 24))
(declare-const x5 (_ FloatingPoint 8 24))
(declare-const x6 (_ FloatingPoint 8 24))
(declare-const x7 (_ FloatingPoint 8 24))
(assert (fp.geq (fp.sub RNE x6 x1) (fp.sub RNE x5 x5)))
(assert (fp.leq (fp.div RNE x7 x5) (fp.add RNE x1 x6)))
(assert (fp.gt (fp.div RNE x5 x6) (fp.div RNE x4 x3)))
(assert (fp.leq (fp.neg x5) (fp.div RNE x2 x4)))
(assert (fp.gt (fp.mul RNE x5 x5) (fp.sub RNE x6 x7)))
(check-sat)
