db/data/26087844285002841720710179551444823528.z3.out
sat
-------------------
35.374905138
